&BANDS
prefix        = 'Sb2Te3-uatsx-c4-soc-2.0'
outdir        = 'tmp'
filband       = './bands/Sb2Te3-uatsx-c4-soc-2.0.bands'  
/
