&BANDS
prefix        = 'Sb2Te3-uatsx-c6-soc-4.0'
outdir        = 'tmp'
filband       = './bands/Sb2Te3-uatsx-c6-soc-4.0.bands'  
/
