&BANDS
prefix        = 'Sb2Te3-uatsx-c2-soc-3.0'
outdir        = 'tmp'
filband       = './bands/Sb2Te3-uatsx-c2-soc-3.0.bands'  
/
