&BANDS
prefix        = 'Sb2Te3-uatsx-c1-1.0'
outdir        = 'tmp'
filband       = './bands/Sb2Te3-uatsx-c1-1.0.bands'  
/
