&CONTROL
calculation   = 'bands'
prefix        = 'Sb2Te3-uatsx-c6-soc-0.0'
pseudo_dir    = '/zfs-home/202401017n1/pseudos'
verbosity     = 'high' 
outdir        = 'tmp'
/
&SYSTEM 
ibrav            = 0             
nat              = 5          
ntyp             = 2          
ecutwfc          = 50
ecutrho          = 500
input_dft        = 'pbe'
vdw_corr         = 'DFT-D'
nbnd             = 100
noncolin        = .true.
lspinorb        = .true.
/

&ELECTRONS
conv_thr      = 1.0D-7
/

ATOMIC_SPECIES
Sb  121.760  Sb.rel-pbe-n-rrkjus_psl.1.0.0.UPF
Te  127.600  Te.rel-pbe-n-rrkjus_psl.1.0.0.UPF

CELL_PARAMETERS (angstrom)
4.310483557   0.000000000   0.000000000
-2.155241778   3.734391482   0.000000000
0.000000000   0.000000000   22.162984280

ATOMIC_POSITIONS (angstrom)
Sb	2.4804380900	1.8192487800	13.0753567200
Te	2.4774722400	1.8204505400	7.3902706700
Sb	0.3245406100	0.5717230600	9.0874251500
Te	0.3238058100	0.5769918400	14.7725564600
Te	0.3226905200	3.0665018300	11.0814275200

K_POINTS (crystal_b)
4
0.000000000	0.000000000	0.000000000	70  !G
0.500000000	0.000000000	0.000000000	70  !M 
0.333333333	0.333333333	0.000000000	70  !K
0.000000000	0.000000000	0.000000000	70  !G
