&CONTROL
calculation   = 'nscf'
prefix        = 'Sb2Te3-uatsx-c1-0.0'
pseudo_dir    = '/zfs-home/202401017n/pseudos'
verbosity     = 'high' 
outdir        = 'tmp'
/

&SYSTEM 
ibrav            = 0                  
nat              = 5          
ntyp             = 2          
ecutwfc          = 70
input_dft        = 'B3LYP-V1R'
exx_fraction     = 0.20
nbnd             = 60
nqx1             = 2
nqx2             = 2
nqx3             = 1 
vdw_corr         = 'DFT-D'
force_symmorphic =.true.
/

&ELECTRONS
conv_thr         = 1.0D-6
diago_full_acc = .TRUE.
/

ATOMIC_SPECIES
Sb  121.760  Sb_ONCV_PBE-1.2.upf
Te  127.600  Te_ONCV_PBE-1.2.upf 

CELL_PARAMETERS (angstrom)
4.310483557   0.000000000   0.000000000
-2.155241778   3.734391482   0.000000000
0.000000000   0.000000000   22.162984280

ATOMIC_POSITIONS (angstrom)
Sb               2.4788874857        1.8207748514       13.0864344015
Te               2.4791053292        1.8195801340        7.3723391896
Sb               0.3229804050        0.5757787051        9.0763801732
Te               0.3239477704        0.5746866929       14.7905057904
Te               0.3240262797        3.0640956665       11.0813769653

K_POINTS (automatic)
13 13 1 0 0 0
