&CONTROL
calculation   = 'scf'
prefix        = 'Sb2Te3-uatsx-c3-5.0'
pseudo_dir    = '/zfs-home/202401017n1/pseudos'
verbosity     = 'high' 
outdir        = 'tmp'
/

&SYSTEM 
ibrav            = 0                  
nat              = 5          
ntyp             = 2          
ecutwfc          = 50
ecutrho          = 500
input_dft        = 'pbe'
vdw_corr         = 'DFT-D'
/

&ELECTRONS
conv_thr      = 1.0D-7
/

ATOMIC_SPECIES
Sb  121.760  Sb_ONCV_PBE-1.2.upf
Te  127.600  Te_ONCV_PBE-1.2.upf 

CELL_PARAMETERS (angstrom)
   4.526007735   0.000000000   0.000000000
   -2.155241778   3.732952155   0.000000000
   0.000000000   0.000000000   22.162984280

ATOMIC_POSITIONS (angstrom)
Sb               2.6891559420        1.8740387011       13.0438468704
Te               2.6059906632        1.7342622830        7.4621461653
Sb               0.3229747280        0.5209365354        9.1189378471
Te               0.4057659489        0.6614010248       14.7006895716
Te               0.4282614395        3.0642775056       11.0814160656

K_POINTS (automatic)
21 21 1 0 0 0
